benchmarks_CP/INST_64x64/40/inst64x64_40_72.dzn
S=8;
start=[|
42,	-1,	-1,	-1,	-1,	12,	-1,	-1,	-1,	59,	-1,	-1,	58,	32,	-1,	-1,	-1,	57,	-1,	4,	53,	-1,	20,	-1,	-1,	2,	-1,	35,	-1,	-1,	21,	-1,	19,	16,	-1,	-1,	29,	52,	3,	31,	-1,	18,	-1,	-1,	47,	55,	62,	-1,	-1,	-1,	-1,	-1,	-1,	-1,	28,	-1,	36,	8,	-1,	-1,	-1,	-1,	17,	-1|
-1,	57,	-1,	-1,	-1,	-1,	-1,	-1,	-1,	15,	-1,	31,	-1,	-1,	54,	53,	-1,	51,	17,	-1,	-1,	-1,	25,	59,	-1,	58,	-1,	-1,	-1,	-1,	1,	-1,	-1,	38,	-1,	50,	22,	44,	9,	39,	48,	-1,	-1,	-1,	46,	29,	-1,	27,	-1,	3,	-1,	-1,	-1,	35,	2,	-1,	-1,	-1,	26,	33,	21,	19,	-1,	-1|
62,	15,	-1,	21,	-1,	-1,	-1,	-1,	-1,	8,	-1,	-1,	3,	-1,	-1,	60,	-1,	-1,	-1,	-1,	-1,	40,	27,	-1,	61,	7,	-1,	47,	-1,	57,	-1,	-1,	-1,	41,	-1,	46,	-1,	32,	-1,	28,	25,	-1,	1,	-1,	17,	-1,	56,	-1,	-1,	-1,	-1,	43,	-1,	34,	-1,	-1,	-1,	39,	12,	-1,	-1,	59,	-1,	-1|
55,	48,	44,	-1,	35,	31,	-1,	49,	-1,	-1,	-1,	36,	-1,	-1,	17,	-1,	-1,	-1,	-1,	-1,	21,	28,	-1,	15,	-1,	-1,	-1,	34,	-1,	12,	14,	6,	-1,	59,	-1,	-1,	-1,	11,	-1,	-1,	-1,	-1,	-1,	-1,	-1,	-1,	-1,	60,	-1,	-1,	-1,	-1,	-1,	-1,	-1,	-1,	-1,	57,	-1,	47,	-1,	52,	-1,	-1|
-1,	36,	52,	-1,	45,	28,	-1,	-1,	-1,	-1,	-1,	16,	-1,	-1,	56,	-1,	-1,	-1,	-1,	-1,	1,	-1,	34,	55,	4,	-1,	22,	29,	39,	-1,	-1,	-1,	35,	-1,	18,	12,	57,	-1,	14,	58,	54,	-1,	-1,	-1,	49,	53,	-1,	-1,	-1,	-1,	32,	-1,	21,	-1,	27,	-1,	60,	-1,	-1,	-1,	23,	-1,	9,	-1|
24,	-1,	34,	-1,	-1,	-1,	39,	33,	-1,	57,	-1,	63,	-1,	23,	38,	-1,	50,	61,	-1,	-1,	19,	18,	-1,	-1,	15,	27,	-1,	-1,	-1,	17,	-1,	-1,	-1,	42,	-1,	55,	60,	-1,	-1,	2,	-1,	-1,	-1,	6,	21,	7,	-1,	-1,	-1,	-1,	-1,	4,	-1,	-1,	11,	51,	-1,	48,	-1,	-1,	5,	-1,	-1,	-1|
27,	7,	6,	-1,	46,	10,	-1,	-1,	12,	-1,	-1,	-1,	-1,	-1,	48,	2,	44,	-1,	-1,	43,	-1,	-1,	-1,	54,	-1,	30,	-1,	-1,	-1,	-1,	-1,	-1,	-1,	8,	5,	-1,	21,	34,	-1,	-1,	16,	-1,	13,	57,	-1,	61,	40,	-1,	-1,	-1,	64,	-1,	-1,	25,	-1,	47,	15,	-1,	45,	-1,	-1,	-1,	-1,	-1|
-1,	22,	61,	32,	29,	-1,	-1,	-1,	-1,	-1,	-1,	-1,	-1,	-1,	-1,	-1,	-1,	47,	-1,	52,	-1,	-1,	-1,	-1,	-1,	25,	-1,	48,	49,	42,	28,	13,	-1,	63,	-1,	-1,	-1,	30,	-1,	-1,	4,	-1,	-1,	-1,	-1,	-1,	19,	10,	-1,	33,	5,	-1,	-1,	50,	55,	57,	-1,	37,	-1,	38,	54,	2,	-1,	-1|
51,	-1,	-1,	-1,	-1,	-1,	-1,	-1,	58,	1,	-1,	47,	-1,	-1,	64,	52,	-1,	24,	-1,	21,	-1,	-1,	11,	61,	-1,	5,	48,	37,	27,	-1,	-1,	31,	56,	-1,	-1,	-1,	-1,	7,	-1,	25,	38,	-1,	9,	-1,	-1,	22,	-1,	-1,	-1,	60,	-1,	12,	-1,	-1,	62,	-1,	-1,	-1,	39,	63,	-1,	3,	6,	-1|
-1,	-1,	-1,	-1,	-1,	7,	14,	-1,	-1,	26,	56,	27,	-1,	63,	13,	-1,	-1,	17,	20,	57,	30,	-1,	37,	4,	-1,	43,	-1,	49,	-1,	2,	59,	-1,	61,	-1,	-1,	-1,	-1,	22,	42,	-1,	-1,	-1,	-1,	-1,	-1,	-1,	15,	21,	58,	55,	-1,	23,	-1,	11,	52,	53,	64,	38,	-1,	-1,	50,	33,	28,	48|
-1,	-1,	-1,	-1,	3,	-1,	6,	-1,	57,	25,	-1,	-1,	-1,	-1,	-1,	-1,	-1,	27,	-1,	-1,	43,	32,	-1,	63,	-1,	45,	-1,	54,	7,	19,	50,	47,	60,	30,	-1,	-1,	-1,	-1,	-1,	-1,	-1,	28,	-1,	51,	26,	-1,	-1,	33,	-1,	17,	-1,	35,	-1,	-1,	-1,	-1,	58,	46,	-1,	37,	55,	24,	1,	61|
33,	-1,	-1,	-1,	-1,	43,	-1,	57,	-1,	-1,	60,	35,	48,	28,	55,	-1,	-1,	-1,	-1,	-1,	-1,	-1,	22,	-1,	-1,	1,	4,	25,	-1,	6,	38,	20,	-1,	10,	-1,	37,	51,	18,	-1,	-1,	-1,	-1,	-1,	-1,	-1,	-1,	-1,	-1,	-1,	7,	29,	-1,	-1,	-1,	46,	-1,	8,	-1,	11,	16,	56,	-1,	-1,	47|
32,	-1,	-1,	-1,	30,	-1,	19,	-1,	-1,	-1,	-1,	-1,	-1,	-1,	29,	-1,	-1,	3,	-1,	-1,	-1,	15,	5,	18,	52,	-1,	-1,	-1,	55,	-1,	-1,	-1,	-1,	-1,	-1,	63,	41,	-1,	-1,	16,	31,	-1,	-1,	-1,	13,	14,	-1,	-1,	-1,	-1,	36,	-1,	-1,	-1,	42,	-1,	53,	7,	-1,	-1,	26,	-1,	-1,	-1|
-1,	28,	-1,	37,	-1,	-1,	-1,	-1,	9,	17,	36,	-1,	43,	-1,	-1,	-1,	-1,	-1,	8,	-1,	58,	6,	33,	25,	16,	-1,	-1,	-1,	-1,	-1,	-1,	63,	-1,	14,	-1,	-1,	39,	-1,	48,	47,	18,	-1,	62,	7,	-1,	-1,	-1,	-1,	-1,	-1,	-1,	24,	-1,	5,	-1,	-1,	52,	41,	-1,	31,	-1,	-1,	-1,	-1|
63,	35,	62,	2,	21,	-1,	55,	10,	16,	-1,	18,	-1,	-1,	-1,	-1,	44,	64,	-1,	45,	-1,	-1,	-1,	49,	-1,	-1,	15,	-1,	-1,	-1,	51,	11,	58,	53,	-1,	46,	27,	52,	-1,	-1,	17,	-1,	37,	-1,	56,	36,	-1,	-1,	59,	-1,	-1,	50,	-1,	31,	-1,	39,	-1,	-1,	9,	-1,	29,	43,	-1,	34,	12|
-1,	-1,	-1,	-1,	-1,	-1,	-1,	-1,	40,	42,	-1,	-1,	5,	-1,	-1,	33,	-1,	-1,	-1,	14,	-1,	59,	-1,	-1,	26,	-1,	-1,	41,	-1,	-1,	32,	62,	-1,	11,	-1,	28,	35,	4,	-1,	-1,	27,	-1,	24,	-1,	39,	-1,	55,	-1,	-1,	63,	47,	34,	49,	-1,	-1,	-1,	-1,	-1,	-1,	2,	-1,	-1,	-1,	18|
-1,	25,	-1,	54,	-1,	-1,	-1,	13,	-1,	9,	-1,	20,	-1,	-1,	18,	8,	-1,	4,	-1,	-1,	63,	10,	-1,	16,	62,	41,	-1,	26,	31,	-1,	58,	51,	-1,	-1,	11,	-1,	37,	3,	53,	-1,	14,	-1,	-1,	21,	-1,	-1,	-1,	-1,	39,	24,	-1,	-1,	-1,	46,	-1,	19,	22,	-1,	-1,	6,	-1,	-1,	40,	-1|
-1,	31,	-1,	35,	-1,	19,	30,	-1,	14,	-1,	-1,	-1,	15,	-1,	33,	-1,	17,	-1,	-1,	-1,	-1,	-1,	-1,	-1,	-1,	-1,	40,	43,	-1,	-1,	44,	10,	59,	-1,	-1,	2,	28,	-1,	46,	45,	49,	-1,	-1,	-1,	-1,	25,	-1,	-1,	-1,	57,	3,	-1,	-1,	63,	-1,	56,	-1,	-1,	47,	-1,	53,	-1,	26,	-1|
-1,	-1,	-1,	-1,	26,	-1,	62,	-1,	-1,	29,	-1,	-1,	-1,	53,	-1,	57,	-1,	22,	47,	-1,	2,	-1,	30,	-1,	14,	55,	-1,	4,	24,	49,	-1,	28,	48,	-1,	-1,	1,	20,	-1,	5,	18,	35,	-1,	10,	-1,	8,	-1,	-1,	-1,	21,	-1,	52,	-1,	-1,	37,	43,	-1,	-1,	45,	-1,	23,	-1,	27,	-1,	44|
-1,	-1,	21,	6,	-1,	60,	1,	5,	62,	45,	-1,	-1,	27,	2,	42,	-1,	-1,	-1,	32,	-1,	-1,	-1,	13,	-1,	-1,	20,	-1,	-1,	-1,	35,	15,	-1,	31,	-1,	63,	33,	-1,	40,	-1,	-1,	55,	19,	-1,	-1,	-1,	64,	-1,	38,	-1,	-1,	41,	-1,	-1,	30,	-1,	49,	-1,	-1,	-1,	52,	-1,	39,	56,	7|
-1,	52,	32,	-1,	47,	-1,	23,	24,	-1,	-1,	-1,	-1,	-1,	17,	-1,	-1,	-1,	-1,	-1,	12,	-1,	-1,	-1,	19,	-1,	16,	-1,	9,	2,	-1,	30,	-1,	-1,	-1,	-1,	-1,	-1,	6,	38,	15,	13,	27,	-1,	42,	-1,	-1,	29,	-1,	25,	-1,	-1,	-1,	-1,	-1,	-1,	26,	46,	18,	-1,	59,	14,	10,	-1,	-1|
-1,	-1,	-1,	-1,	-1,	45,	-1,	-1,	-1,	-1,	-1,	12,	-1,	11,	58,	55,	42,	44,	-1,	53,	-1,	-1,	-1,	-1,	37,	-1,	-1,	23,	-1,	-1,	-1,	50,	21,	-1,	-1,	22,	8,	-1,	7,	-1,	-1,	-1,	-1,	18,	-1,	62,	32,	9,	14,	-1,	-1,	-1,	-1,	-1,	36,	-1,	2,	64,	-1,	57,	-1,	-1,	31,	30|
34,	-1,	-1,	-1,	-1,	-1,	36,	-1,	-1,	-1,	43,	-1,	-1,	44,	-1,	13,	-1,	40,	-1,	6,	-1,	-1,	-1,	-1,	5,	3,	-1,	42,	-1,	38,	48,	-1,	-1,	-1,	-1,	-1,	14,	19,	56,	-1,	-1,	63,	59,	12,	-1,	-1,	-1,	2,	-1,	-1,	51,	-1,	-1,	18,	54,	62,	-1,	-1,	55,	-1,	-1,	-1,	-1,	-1|
14,	-1,	-1,	33,	-1,	29,	-1,	59,	-1,	-1,	35,	-1,	-1,	39,	1,	-1,	-1,	-1,	-1,	45,	-1,	-1,	-1,	-1,	-1,	-1,	46,	-1,	57,	-1,	36,	53,	47,	-1,	26,	41,	42,	49,	-1,	-1,	-1,	44,	40,	-1,	28,	-1,	24,	-1,	6,	9,	-1,	64,	5,	60,	-1,	-1,	-1,	-1,	-1,	-1,	61,	62,	-1,	-1|
47,	-1,	45,	30,	38,	-1,	-1,	-1,	-1,	-1,	63,	-1,	-1,	-1,	-1,	-1,	34,	46,	-1,	-1,	-1,	-1,	-1,	-1,	28,	53,	20,	-1,	33,	27,	-1,	8,	-1,	-1,	6,	-1,	17,	-1,	-1,	-1,	-1,	-1,	-1,	-1,	-1,	18,	-1,	15,	-1,	52,	16,	56,	-1,	23,	9,	-1,	-1,	1,	-1,	-1,	-1,	13,	-1,	-1|
-1,	58,	-1,	48,	16,	-1,	3,	-1,	-1,	32,	31,	53,	-1,	56,	-1,	-1,	35,	30,	61,	-1,	-1,	-1,	-1,	2,	-1,	-1,	-1,	-1,	-1,	-1,	-1,	18,	28,	15,	-1,	-1,	33,	-1,	1,	-1,	-1,	-1,	45,	-1,	-1,	-1,	-1,	-1,	-1,	-1,	-1,	20,	-1,	-1,	-1,	21,	-1,	-1,	60,	-1,	-1,	-1,	-1,	-1|
-1,	-1,	-1,	11,	-1,	-1,	5,	-1,	4,	-1,	-1,	-1,	-1,	-1,	20,	17,	21,	-1,	-1,	-1,	-1,	-1,	-1,	-1,	-1,	31,	-1,	-1,	-1,	-1,	-1,	-1,	43,	-1,	60,	-1,	46,	-1,	30,	-1,	-1,	-1,	-1,	-1,	-1,	58,	12,	-1,	-1,	-1,	-1,	-1,	24,	-1,	47,	-1,	27,	-1,	-1,	-1,	-1,	-1,	-1,	63|
-1,	-1,	53,	36,	-1,	-1,	20,	-1,	-1,	51,	54,	-1,	-1,	-1,	28,	15,	37,	-1,	24,	-1,	42,	27,	-1,	23,	-1,	13,	-1,	45,	-1,	-1,	-1,	-1,	-1,	-1,	52,	26,	11,	29,	-1,	-1,	62,	40,	-1,	-1,	38,	-1,	21,	-1,	57,	-1,	-1,	48,	-1,	10,	41,	-1,	56,	-1,	-1,	-1,	-1,	58,	61,	-1|
-1,	-1,	19,	-1,	-1,	-1,	52,	-1,	-1,	-1,	-1,	-1,	1,	-1,	-1,	-1,	-1,	14,	41,	-1,	-1,	-1,	-1,	-1,	-1,	-1,	-1,	-1,	58,	-1,	-1,	34,	-1,	-1,	2,	-1,	-1,	38,	-1,	-1,	46,	-1,	-1,	-1,	-1,	-1,	-1,	43,	64,	-1,	31,	-1,	63,	6,	-1,	-1,	11,	29,	-1,	-1,	-1,	22,	-1,	-1|
-1,	-1,	41,	15,	-1,	35,	31,	-1,	-1,	-1,	22,	10,	57,	-1,	-1,	-1,	-1,	-1,	-1,	-1,	-1,	-1,	40,	-1,	30,	-1,	-1,	-1,	-1,	-1,	23,	-1,	25,	21,	-1,	-1,	-1,	-1,	4,	63,	-1,	-1,	-1,	-1,	-1,	-1,	61,	-1,	27,	46,	37,	7,	18,	-1,	14,	1,	-1,	47,	-1,	-1,	8,	36,	-1,	-1|
-1,	-1,	-1,	-1,	64,	40,	22,	-1,	45,	14,	-1,	-1,	41,	-1,	-1,	16,	-1,	18,	56,	-1,	-1,	-1,	62,	-1,	38,	49,	52,	6,	-1,	-1,	-1,	-1,	-1,	-1,	20,	-1,	-1,	-1,	50,	27,	-1,	31,	17,	36,	-1,	-1,	13,	8,	-1,	-1,	-1,	-1,	2,	-1,	-1,	58,	-1,	43,	-1,	-1,	-1,	-1,	30,	25|
-1,	-1,	-1,	-1,	-1,	23,	-1,	26,	27,	-1,	-1,	18,	-1,	9,	-1,	38,	33,	11,	-1,	-1,	-1,	-1,	-1,	-1,	50,	19,	61,	64,	-1,	16,	4,	-1,	-1,	56,	-1,	-1,	-1,	-1,	-1,	14,	20,	48,	42,	-1,	55,	-1,	63,	-1,	17,	43,	-1,	-1,	-1,	-1,	-1,	15,	7,	-1,	-1,	-1,	41,	40,	-1,	35|
-1,	54,	-1,	-1,	62,	-1,	-1,	-1,	-1,	48,	-1,	-1,	11,	-1,	-1,	18,	-1,	-1,	-1,	-1,	55,	-1,	58,	-1,	-1,	-1,	-1,	-1,	-1,	-1,	27,	-1,	41,	-1,	19,	-1,	-1,	-1,	-1,	5,	-1,	29,	25,	-1,	-1,	36,	51,	-1,	63,	-1,	28,	1,	-1,	-1,	-1,	22,	-1,	-1,	-1,	3,	2,	-1,	-1,	-1|
-1,	-1,	-1,	-1,	-1,	41,	53,	-1,	-1,	-1,	-1,	61,	-1,	-1,	-1,	-1,	-1,	-1,	27,	9,	32,	29,	-1,	-1,	22,	-1,	-1,	-1,	6,	-1,	-1,	35,	-1,	60,	30,	-1,	-1,	-1,	-1,	-1,	-1,	-1,	64,	-1,	-1,	-1,	-1,	-1,	-1,	42,	-1,	51,	-1,	-1,	-1,	-1,	62,	-1,	-1,	-1,	19,	-1,	-1,	33|
44,	17,	-1,	-1,	-1,	63,	56,	-1,	26,	-1,	29,	-1,	-1,	-1,	-1,	40,	-1,	-1,	-1,	-1,	39,	-1,	-1,	62,	49,	-1,	55,	-1,	-1,	3,	-1,	-1,	-1,	-1,	-1,	-1,	-1,	1,	24,	37,	58,	45,	27,	-1,	-1,	54,	11,	6,	31,	64,	-1,	-1,	-1,	52,	-1,	-1,	-1,	60,	-1,	-1,	48,	61,	5,	42|
50,	-1,	39,	-1,	31,	-1,	-1,	11,	63,	-1,	-1,	-1,	-1,	-1,	-1,	-1,	20,	12,	-1,	25,	-1,	1,	36,	-1,	58,	-1,	-1,	-1,	-1,	37,	54,	-1,	-1,	9,	59,	52,	-1,	48,	-1,	-1,	8,	22,	14,	-1,	61,	-1,	-1,	-1,	-1,	-1,	-1,	-1,	3,	32,	24,	18,	45,	-1,	44,	10,	-1,	-1,	-1,	-1|
-1,	37,	-1,	4,	-1,	3,	60,	23,	-1,	36,	-1,	1,	-1,	7,	-1,	-1,	16,	-1,	5,	46,	57,	-1,	-1,	48,	51,	42,	-1,	31,	-1,	13,	26,	-1,	20,	58,	-1,	15,	-1,	-1,	29,	53,	-1,	33,	28,	32,	2,	38,	35,	-1,	-1,	27,	-1,	-1,	-1,	61,	-1,	-1,	-1,	-1,	52,	-1,	-1,	-1,	-1,	6|
26,	16,	-1,	-1,	-1,	42,	-1,	-1,	-1,	28,	-1,	52,	9,	-1,	49,	-1,	-1,	15,	63,	-1,	-1,	22,	18,	8,	64,	-1,	24,	-1,	14,	-1,	34,	-1,	-1,	-1,	-1,	-1,	-1,	-1,	-1,	-1,	-1,	-1,	-1,	19,	-1,	-1,	-1,	-1,	-1,	2,	55,	-1,	-1,	58,	-1,	-1,	47,	-1,	-1,	-1,	1,	-1,	38,	-1|
36,	-1,	-1,	-1,	-1,	-1,	-1,	48,	-1,	-1,	-1,	45,	31,	14,	-1,	-1,	-1,	6,	52,	41,	17,	11,	-1,	21,	2,	63,	9,	1,	-1,	-1,	60,	-1,	-1,	64,	3,	-1,	-1,	-1,	-1,	61,	42,	24,	-1,	-1,	-1,	30,	-1,	-1,	-1,	-1,	56,	5,	43,	54,	-1,	-1,	39,	-1,	-1,	-1,	25,	-1,	8,	-1|
-1,	21,	10,	45,	6,	-1,	-1,	-1,	23,	56,	-1,	-1,	-1,	19,	2,	64,	-1,	13,	-1,	-1,	-1,	24,	61,	31,	-1,	-1,	-1,	62,	-1,	50,	-1,	5,	-1,	44,	-1,	-1,	-1,	-1,	63,	11,	-1,	-1,	18,	60,	-1,	26,	53,	-1,	29,	41,	17,	33,	-1,	-1,	15,	35,	-1,	-1,	-1,	-1,	-1,	-1,	-1,	-1|
-1,	-1,	49,	-1,	9,	-1,	-1,	-1,	34,	-1,	-1,	8,	-1,	35,	63,	5,	-1,	-1,	-1,	-1,	29,	-1,	-1,	-1,	-1,	28,	-1,	-1,	-1,	39,	-1,	-1,	6,	-1,	4,	-1,	-1,	-1,	-1,	-1,	-1,	-1,	-1,	-1,	52,	-1,	2,	31,	-1,	40,	-1,	-1,	59,	53,	-1,	-1,	23,	-1,	-1,	-1,	-1,	-1,	-1,	24|
61,	51,	-1,	-1,	-1,	24,	16,	6,	-1,	-1,	-1,	28,	-1,	-1,	-1,	7,	-1,	56,	-1,	11,	-1,	-1,	-1,	-1,	-1,	-1,	-1,	18,	-1,	-1,	46,	21,	-1,	-1,	-1,	-1,	-1,	53,	20,	-1,	33,	50,	-1,	-1,	-1,	40,	-1,	-1,	-1,	-1,	8,	63,	-1,	31,	4,	-1,	38,	-1,	-1,	-1,	62,	-1,	-1,	41|
-1,	-1,	-1,	-1,	-1,	-1,	8,	-1,	-1,	-1,	-1,	-1,	-1,	-1,	23,	37,	30,	25,	4,	42,	-1,	51,	-1,	-1,	-1,	47,	-1,	-1,	53,	-1,	-1,	-1,	39,	-1,	-1,	-1,	-1,	-1,	32,	-1,	-1,	5,	55,	-1,	-1,	-1,	-1,	-1,	20,	-1,	46,	61,	-1,	-1,	49,	-1,	-1,	36,	40,	-1,	58,	44,	33,	56|
-1,	53,	-1,	-1,	57,	-1,	-1,	27,	-1,	-1,	47,	55,	-1,	42,	44,	56,	-1,	-1,	-1,	63,	-1,	-1,	-1,	40,	32,	-1,	-1,	-1,	-1,	25,	-1,	41,	-1,	28,	-1,	-1,	62,	-1,	59,	-1,	-1,	-1,	20,	49,	-1,	-1,	-1,	13,	10,	-1,	-1,	-1,	-1,	-1,	-1,	-1,	-1,	-1,	-1,	-1,	-1,	-1,	18,	46|
-1,	-1,	-1,	55,	-1,	15,	-1,	28,	36,	-1,	-1,	-1,	38,	-1,	-1,	-1,	43,	-1,	-1,	-1,	-1,	-1,	46,	-1,	29,	61,	42,	30,	34,	-1,	37,	-1,	-1,	-1,	58,	-1,	45,	-1,	51,	49,	17,	25,	-1,	53,	-1,	19,	41,	44,	32,	56,	6,	-1,	-1,	24,	7,	-1,	21,	-1,	-1,	13,	16,	-1,	-1,	2|
35,	18,	-1,	-1,	20,	-1,	-1,	36,	39,	21,	52,	-1,	-1,	-1,	-1,	32,	58,	-1,	-1,	-1,	-1,	-1,	-1,	53,	-1,	-1,	10,	-1,	-1,	-1,	-1,	-1,	-1,	19,	25,	40,	-1,	-1,	8,	41,	61,	23,	-1,	29,	-1,	-1,	-1,	-1,	-1,	30,	26,	38,	48,	-1,	-1,	-1,	-1,	55,	-1,	9,	59,	-1,	54,	-1|
-1,	-1,	-1,	-1,	-1,	37,	-1,	-1,	61,	50,	-1,	-1,	54,	13,	-1,	22,	3,	-1,	-1,	-1,	-1,	21,	41,	-1,	-1,	60,	-1,	8,	-1,	55,	-1,	23,	-1,	-1,	-1,	-1,	-1,	-1,	-1,	-1,	-1,	-1,	-1,	-1,	-1,	-1,	-1,	-1,	-1,	-1,	44,	-1,	29,	-1,	33,	42,	-1,	63,	-1,	49,	-1,	-1,	53,	-1|
-1,	40,	29,	-1,	-1,	14,	-1,	-1,	-1,	-1,	-1,	58,	-1,	-1,	-1,	-1,	-1,	-1,	-1,	19,	-1,	38,	-1,	-1,	-1,	-1,	45,	15,	9,	4,	-1,	49,	57,	-1,	-1,	-1,	-1,	64,	-1,	-1,	-1,	-1,	-1,	-1,	54,	-1,	18,	-1,	-1,	-1,	-1,	-1,	55,	17,	-1,	-1,	-1,	-1,	-1,	-1,	-1,	-1,	-1,	-1|
28,	-1,	-1,	-1,	-1,	-1,	-1,	44,	17,	20,	-1,	29,	10,	54,	-1,	61,	-1,	-1,	-1,	-1,	-1,	5,	-1,	-1,	-1,	4,	-1,	-1,	-1,	-1,	49,	-1,	-1,	-1,	14,	-1,	48,	-1,	22,	-1,	-1,	38,	57,	-1,	-1,	-1,	36,	-1,	-1,	-1,	1,	-1,	-1,	26,	-1,	32,	-1,	2,	64,	7,	-1,	11,	51,	-1|
15,	-1,	-1,	31,	-1,	-1,	12,	-1,	21,	-1,	-1,	26,	-1,	-1,	47,	-1,	61,	-1,	55,	58,	41,	63,	-1,	27,	-1,	14,	-1,	-1,	56,	-1,	-1,	36,	8,	-1,	-1,	7,	-1,	-1,	-1,	-1,	-1,	13,	-1,	17,	-1,	-1,	50,	-1,	-1,	-1,	43,	57,	-1,	62,	-1,	-1,	-1,	-1,	3,	-1,	38,	-1,	-1,	-1|
-1,	29,	36,	17,	-1,	-1,	-1,	42,	-1,	-1,	25,	4,	33,	22,	14,	48,	-1,	-1,	21,	-1,	-1,	8,	9,	-1,	31,	12,	63,	51,	-1,	-1,	-1,	-1,	-1,	-1,	16,	-1,	-1,	-1,	-1,	-1,	-1,	-1,	2,	-1,	6,	24,	-1,	-1,	-1,	-1,	-1,	-1,	27,	15,	3,	-1,	20,	-1,	1,	61,	-1,	56,	-1,	60|
-1,	-1,	-1,	1,	-1,	-1,	26,	-1,	60,	-1,	5,	-1,	-1,	-1,	57,	58,	-1,	-1,	-1,	-1,	-1,	-1,	51,	-1,	-1,	59,	-1,	-1,	42,	-1,	-1,	7,	-1,	62,	-1,	53,	27,	17,	-1,	46,	-1,	-1,	19,	-1,	30,	-1,	-1,	47,	-1,	-1,	49,	2,	-1,	-1,	38,	-1,	-1,	-1,	-1,	14,	-1,	-1,	32,	-1|
-1,	14,	-1,	-1,	-1,	-1,	-1,	-1,	-1,	55,	-1,	-1,	-1,	49,	31,	36,	-1,	-1,	-1,	-1,	15,	-1,	-1,	-1,	-1,	-1,	-1,	28,	37,	-1,	-1,	-1,	13,	-1,	29,	3,	58,	-1,	-1,	-1,	-1,	-1,	-1,	25,	1,	-1,	-1,	5,	-1,	-1,	23,	-1,	30,	-1,	20,	-1,	19,	-1,	6,	54,	-1,	18,	-1,	62|
-1,	50,	56,	62,	-1,	9,	61,	-1,	-1,	-1,	6,	-1,	-1,	12,	40,	45,	-1,	1,	48,	38,	-1,	-1,	4,	14,	44,	-1,	-1,	-1,	25,	-1,	20,	60,	32,	18,	-1,	-1,	-1,	-1,	52,	42,	-1,	-1,	-1,	-1,	-1,	51,	-1,	-1,	11,	-1,	24,	-1,	-1,	22,	5,	33,	-1,	-1,	-1,	-1,	-1,	55,	-1,	-1|
-1,	6,	-1,	3,	-1,	51,	-1,	-1,	-1,	13,	38,	-1,	28,	59,	-1,	35,	25,	-1,	62,	-1,	-1,	-1,	24,	-1,	-1,	-1,	-1,	27,	32,	23,	43,	-1,	-1,	47,	-1,	36,	2,	-1,	55,	-1,	-1,	-1,	21,	-1,	64,	-1,	-1,	-1,	44,	19,	-1,	-1,	4,	14,	-1,	10,	31,	-1,	-1,	5,	12,	-1,	52,	-1|
59,	45,	-1,	20,	-1,	-1,	24,	-1,	-1,	-1,	34,	-1,	-1,	-1,	3,	50,	19,	23,	-1,	-1,	18,	-1,	29,	-1,	-1,	8,	-1,	2,	-1,	10,	-1,	26,	-1,	-1,	-1,	-1,	-1,	21,	43,	12,	-1,	-1,	-1,	46,	-1,	41,	22,	32,	-1,	-1,	54,	16,	-1,	-1,	58,	60,	-1,	33,	-1,	40,	28,	49,	-1,	-1|
-1,	-1,	31,	53,	36,	-1,	58,	-1,	-1,	3,	-1,	-1,	-1,	1,	4,	-1,	15,	-1,	-1,	28,	-1,	-1,	-1,	-1,	-1,	-1,	-1,	-1,	-1,	64,	41,	55,	-1,	5,	-1,	43,	30,	63,	18,	33,	-1,	-1,	-1,	-1,	25,	-1,	27,	-1,	60,	-1,	-1,	-1,	57,	-1,	-1,	52,	-1,	-1,	49,	-1,	-1,	6,	-1,	59|
-1,	5,	-1,	-1,	-1,	6,	-1,	-1,	20,	54,	-1,	-1,	-1,	21,	-1,	-1,	-1,	32,	-1,	23,	-1,	-1,	10,	-1,	-1,	-1,	-1,	52,	-1,	-1,	-1,	42,	45,	53,	15,	9,	-1,	-1,	-1,	-1,	39,	3,	63,	47,	40,	-1,	30,	-1,	-1,	14,	-1,	50,	-1,	-1,	-1,	55,	48,	-1,	-1,	-1,	-1,	16,	-1,	-1|
-1,	-1,	-1,	-1,	-1,	61,	-1,	-1,	-1,	-1,	-1,	-1,	22,	-1,	-1,	14,	27,	-1,	-1,	56,	-1,	-1,	16,	-1,	-1,	-1,	49,	-1,	47,	45,	-1,	-1,	29,	-1,	-1,	20,	-1,	-1,	64,	-1,	-1,	-1,	-1,	-1,	42,	-1,	17,	4,	24,	23,	15,	36,	-1,	-1,	-1,	-1,	-1,	-1,	-1,	-1,	-1,	-1,	-1,	-1|
56,	26,	46,	-1,	-1,	38,	59,	16,	53,	-1,	-1,	62,	45,	-1,	-1,	-1,	12,	42,	18,	7,	-1,	3,	-1,	-1,	-1,	50,	-1,	-1,	44,	36,	57,	61,	11,	-1,	47,	39,	-1,	-1,	-1,	-1,	-1,	-1,	-1,	-1,	-1,	-1,	-1,	29,	-1,	-1,	63,	-1,	10,	-1,	-1,	-1,	-1,	-1,	-1,	-1,	-1,	41,	-1,	-1|
-1,	-1,	-1,	14,	63,	-1,	-1,	-1,	-1,	-1,	-1,	39,	-1,	-1,	-1,	43,	-1,	-1,	-1,	-1,	-1,	-1,	54,	-1,	34,	56,	-1,	-1,	-1,	7,	40,	-1,	52,	-1,	-1,	-1,	49,	-1,	-1,	6,	-1,	20,	-1,	-1,	-1,	-1,	-1,	-1,	4,	37,	9,	-1,	12,	-1,	59,	31,	17,	53,	-1,	1,	15,	-1,	-1,	-1|
-1,	1,	-1,	-1,	48,	-1,	-1,	-1,	-1,	12,	55,	-1,	52,	6,	-1,	-1,	5,	-1,	-1,	20,	-1,	-1,	-1,	43,	-1,	21,	-1,	46,	-1,	-1,	-1,	-1,	-1,	7,	-1,	-1,	-1,	-1,	27,	-1,	-1,	-1,	-1,	-1,	-1,	13,	-1,	54,	22,	11,	-1,	26,	-1,	-1,	64,	-1,	-1,	44,	58,	36,	-1,	38,	-1,	-1|
-1,	-1,	3,	-1,	-1,	20,	-1,	55,	-1,	-1,	-1,	46,	-1,	-1,	59,	-1,	1,	60,	-1,	-1,	-1,	37,	-1,	-1,	-1,	-1,	6,	-1,	-1,	-1,	-1,	-1,	-1,	2,	-1,	-1,	12,	16,	-1,	-1,	-1,	-1,	-1,	-1,	-1,	52,	-1,	-1,	-1,	62,	-1,	-1,	7,	-1,	-1,	41,	35,	-1,	-1,	-1,	45,	63,	-1,	-1|
-1,	49,	-1,	64,	-1,	54,	-1,	-1,	-1,	23,	-1,	56,	47,	40,	-1,	-1,	-1,	35,	14,	-1,	61,	30,	21,	-1,	-1,	-1,	2,	-1,	-1,	-1,	29,	-1,	-1,	-1,	-1,	-1,	3,	59,	25,	-1,	6,	-1,	5,	-1,	45,	-1,	37,	36,	-1,	-1,	-1,	-1,	-1,	19,	-1,	39,	55,	-1,	27,	28,	18,	-1,	-1,	-1|];
