sudoku-ls/benchmarks_LEQ/INST_64x64/40/inst64x64_40_72.txt
8
1
-1	-1	-1	63	5	-1	25	56	-1	59	-1	-1	58	32	27	-1	13	57	37	-1	53	-1	20	-1	-1	-1	33	-1	-1	-1	-1	-1	-1	16	10	-1	-1	-1	-1	31	22	-1	-1	39	-1	55	62	-1	-1	-1	61	-1	26	-1	28	-1	36	-1	-1	-1	-1	-1	17	50
-1	57	-1	18	-1	-1	47	-1	-1	-1	61	-1	-1	5	-1	-1	-1	51	17	-1	-1	-1	25	-1	45	-1	-1	24	43	56	-1	11	62	-1	7	-1	22	44	9	39	-1	30	-1	-1	-1	-1	-1	-1	-1	3	-1	6	-1	35	2	-1	41	-1	26	-1	-1	19	55	13
-1	-1	38	21	58	-1	-1	-1	-1	-1	-1	-1	-1	-1	-1	-1	23	5	-1	-1	-1	-1	27	-1	61	-1	-1	47	63	-1	-1	16	51	-1	54	46	-1	32	-1	-1	-1	35	1	-1	17	-1	-1	-1	-1	-1	10	-1	-1	-1	29	-1	6	39	-1	-1	-1	-1	-1	-1
-1	-1	44	41	35	-1	-1	49	18	-1	62	36	39	-1	-1	-1	-1	58	-1	22	21	-1	42	-1	-1	64	-1	-1	-1	12	14	-1	-1	-1	-1	25	-1	-1	-1	43	-1	-1	8	3	-1	32	-1	-1	-1	-1	-1	-1	56	-1	-1	-1	16	57	51	47	24	52	10	27
-1	-1	-1	50	45	28	51	-1	-1	10	-1	16	-1	47	-1	-1	24	31	-1	-1	1	-1	-1	-1	4	-1	22	29	-1	-1	5	40	-1	48	-1	-1	57	20	14	-1	-1	-1	-1	-1	-1	-1	-1	-1	-1	-1	-1	19	-1	42	27	-1	-1	61	-1	-1	23	-1	-1	-1
-1	13	34	59	-1	53	39	-1	-1	-1	28	-1	25	-1	-1	29	50	61	-1	-1	-1	18	-1	30	-1	-1	-1	36	10	-1	8	3	-1	42	45	-1	-1	-1	47	-1	-1	12	58	-1	-1	-1	14	-1	-1	-1	-1	-1	54	-1	-1	-1	-1	-1	20	-1	5	-1	-1	-1
-1	-1	6	-1	46	-1	37	-1	12	-1	24	-1	51	-1	-1	-1	44	39	35	-1	-1	-1	-1	-1	-1	30	-1	-1	-1	9	53	-1	-1	-1	-1	-1	-1	-1	36	26	16	42	-1	57	33	61	40	23	-1	18	-1	-1	-1	25	-1	47	15	28	45	56	-1	-1	-1	3
-1	22	61	32	29	-1	9	-1	1	35	-1	-1	64	-1	21	46	60	-1	-1	52	45	16	3	12	41	25	51	-1	-1	42	-1	-1	-1	-1	-1	-1	-1	-1	6	23	4	36	31	24	59	-1	-1	-1	7	-1	-1	62	-1	-1	-1	57	44	37	-1	-1	54	2	-1	-1
51	41	-1	26	42	8	-1	53	-1	1	-1	47	-1	20	-1	-1	28	-1	29	-1	23	46	-1	-1	35	5	-1	37	-1	-1	13	-1	-1	55	-1	-1	-1	-1	2	25	38	16	-1	45	-1	-1	-1	19	-1	60	-1	-1	-1	-1	62	30	-1	-1	-1	63	36	-1	-1	10
-1	-1	-1	16	-1	-1	14	-1	-1	-1	-1	27	8	-1	-1	62	-1	17	20	-1	-1	-1	37	4	-1	43	18	-1	-1	-1	-1	12	-1	-1	-1	-1	44	22	-1	1	40	-1	-1	10	32	-1	-1	-1	-1	-1	45	23	-1	11	52	53	-1	38	35	51	-1	-1	28	48
-1	20	-1	12	-1	-1	6	34	-1	25	11	-1	23	-1	-1	-1	52	-1	-1	44	43	32	2	63	39	-1	36	54	7	19	50	-1	60	-1	-1	-1	5	15	31	-1	-1	-1	29	-1	-1	-1	8	-1	-1	-1	59	-1	-1	-1	-1	13	-1	46	-1	37	-1	-1	-1	61
-1	44	-1	-1	27	-1	-1	57	32	-1	60	-1	-1	28	-1	31	-1	19	-1	-1	-1	-1	-1	-1	42	-1	-1	25	61	-1	-1	20	64	-1	21	37	-1	18	-1	13	-1	49	-1	-1	-1	17	-1	52	26	7	-1	-1	41	9	-1	-1	-1	30	-1	16	56	23	59	-1
32	-1	22	-1	-1	-1	19	46	59	-1	2	-1	-1	-1	-1	49	-1	3	54	-1	47	15	-1	-1	-1	9	-1	17	55	24	33	64	-1	-1	-1	-1	41	-1	-1	16	-1	4	-1	-1	-1	14	-1	-1	-1	-1	-1	-1	-1	-1	-1	37	53	-1	-1	-1	-1	-1	-1	-1
45	28	-1	37	-1	-1	38	-1	-1	-1	36	3	43	-1	30	-1	56	-1	-1	35	-1	-1	33	-1	-1	40	-1	44	-1	-1	-1	-1	-1	-1	-1	-1	-1	-1	-1	47	-1	11	-1	7	50	-1	-1	-1	-1	-1	20	-1	51	5	-1	-1	52	-1	42	31	13	-1	-1	-1
63	-1	62	2	-1	-1	55	10	16	22	18	6	-1	-1	7	-1	-1	26	45	1	-1	-1	49	41	-1	-1	-1	-1	-1	-1	11	58	-1	-1	46	-1	-1	24	-1	-1	-1	-1	3	-1	-1	-1	20	-1	-1	-1	-1	-1	31	8	39	38	-1	-1	-1	-1	43	5	-1	-1
-1	-1	-1	-1	60	36	-1	31	-1	42	37	-1	-1	-1	-1	33	53	-1	-1	14	-1	-1	-1	51	-1	-1	-1	-1	-1	-1	32	62	-1	-1	8	28	-1	-1	-1	-1	27	-1	24	64	39	-1	-1	-1	61	63	47	34	49	-1	16	-1	-1	-1	17	2	-1	20	-1	-1
-1	-1	2	54	-1	-1	50	13	-1	9	-1	-1	56	-1	-1	-1	-1	-1	-1	59	-1	10	-1	16	62	-1	27	-1	-1	61	-1	-1	-1	12	11	23	-1	-1	-1	-1	-1	-1	-1	21	34	-1	-1	-1	-1	-1	33	-1	-1	46	-1	-1	22	-1	-1	-1	-1	60	-1	15
-1	-1	-1	35	55	-1	-1	-1	-1	16	7	-1	-1	51	33	-1	-1	-1	-1	-1	-1	-1	-1	9	-1	-1	-1	-1	-1	-1	-1	-1	59	-1	-1	-1	-1	-1	-1	-1	49	-1	-1	-1	20	-1	4	-1	42	-1	3	-1	50	-1	12	-1	-1	5	47	-1	-1	8	-1	38
-1	12	42	-1	-1	-1	-1	15	-1	-1	50	-1	-1	-1	61	-1	51	22	-1	36	-1	-1	30	-1	-1	55	64	4	-1	-1	39	-1	-1	54	-1	-1	20	-1	5	18	35	-1	10	-1	8	3	60	-1	-1	-1	-1	-1	17	37	43	-1	-1	-1	-1	-1	-1	-1	-1	-1
46	9	-1	-1	-1	-1	1	-1	62	45	-1	23	27	2	-1	54	18	29	-1	-1	-1	-1	-1	24	25	-1	-1	-1	-1	-1	-1	-1	31	-1	63	33	-1	-1	-1	-1	-1	-1	-1	-1	-1	-1	57	38	-1	-1	-1	53	-1	-1	34	-1	3	50	-1	52	51	-1	-1	-1
48	-1	-1	40	-1	-1	23	-1	22	31	-1	60	63	17	36	-1	62	-1	-1	12	-1	58	-1	-1	-1	-1	-1	-1	-1	-1	30	-1	44	51	-1	-1	-1	6	-1	15	-1	-1	53	42	5	-1	-1	56	-1	-1	-1	55	-1	20	-1	-1	-1	-1	-1	-1	14	10	4	-1
20	-1	-1	-1	-1	-1	17	3	25	47	49	12	4	11	-1	-1	42	44	-1	53	-1	33	-1	52	-1	54	29	-1	-1	60	-1	-1	21	61	13	22	8	-1	-1	10	26	46	-1	18	-1	-1	-1	-1	14	16	38	-1	-1	-1	36	-1	2	-1	24	-1	34	-1	-1	-1
34	-1	-1	-1	-1	4	36	-1	37	24	43	-1	26	-1	32	13	-1	40	49	-1	-1	-1	28	-1	5	-1	-1	42	-1	-1	-1	1	30	-1	-1	60	14	19	-1	-1	-1	-1	-1	12	-1	-1	-1	2	-1	-1	-1	-1	15	18	54	62	-1	58	-1	-1	29	35	25	-1
-1	-1	37	33	-1	29	10	-1	-1	19	-1	-1	21	39	1	-1	55	-1	43	45	-1	25	-1	-1	-1	-1	46	-1	-1	-1	-1	53	47	50	26	-1	-1	-1	-1	52	51	44	-1	-1	-1	-1	-1	30	-1	9	-1	-1	5	-1	-1	-1	13	-1	54	11	-1	62	-1	20
47	62	45	-1	38	-1	21	7	-1	61	63	-1	-1	58	-1	39	-1	46	31	-1	4	-1	26	-1	-1	53	-1	-1	-1	27	-1	8	22	37	-1	-1	17	41	-1	-1	-1	60	-1	14	-1	18	3	-1	55	-1	-1	-1	-1	23	-1	29	-1	1	-1	64	-1	13	-1	-1
17	-1	-1	48	16	-1	-1	-1	-1	-1	31	-1	13	-1	-1	23	-1	-1	61	-1	-1	-1	-1	2	36	-1	41	7	26	22	-1	-1	-1	15	40	-1	33	8	1	19	-1	54	45	-1	-1	-1	25	11	34	12	-1	-1	-1	-1	44	21	-1	-1	-1	-1	-1	-1	37	-1
-1	-1	-1	11	13	44	5	18	-1	-1	-1	2	7	34	-1	-1	-1	-1	19	-1	25	45	-1	-1	55	31	-1	-1	35	-1	-1	-1	43	57	-1	-1	46	-1	-1	-1	-1	-1	-1	-1	-1	58	-1	-1	36	50	53	-1	-1	-1	-1	-1	27	-1	16	-1	-1	-1	48	63
9	39	-1	-1	-1	-1	-1	63	47	-1	-1	-1	12	-1	-1	15	-1	-1	-1	55	-1	-1	59	23	-1	13	5	-1	-1	-1	17	2	16	-1	52	-1	-1	29	-1	-1	-1	-1	32	50	38	6	21	-1	-1	-1	-1	-1	35	10	41	-1	56	31	-1	-1	-1	-1	61	-1
-1	-1	-1	-1	56	-1	52	-1	-1	-1	-1	37	1	-1	-1	21	36	-1	-1	16	-1	57	-1	50	-1	-1	25	12	-1	-1	-1	-1	24	13	2	18	-1	38	-1	-1	46	47	-1	23	-1	-1	-1	-1	-1	-1	31	-1	-1	-1	-1	40	11	-1	-1	-1	-1	22	-1	-1
-1	-1	41	15	-1	-1	31	-1	48	-1	22	-1	-1	-1	-1	-1	-1	-1	-1	-1	20	-1	-1	58	30	11	-1	-1	-1	-1	23	9	25	21	-1	-1	64	-1	-1	-1	19	52	-1	-1	-1	-1	-1	49	27	46	-1	-1	-1	-1	14	1	-1	-1	38	34	8	36	-1	-1
-1	-1	-1	-1	-1	40	-1	-1	45	14	46	-1	41	-1	11	16	47	-1	-1	-1	60	-1	-1	-1	-1	-1	-1	6	48	21	-1	-1	-1	3	-1	-1	10	39	-1	27	-1	-1	-1	-1	-1	-1	-1	8	-1	-1	-1	-1	-1	28	61	58	26	43	-1	44	-1	12	-1	25
-1	34	-1	-1	-1	-1	-1	26	-1	5	-1	-1	49	9	-1	-1	33	11	-1	29	8	-1	-1	-1	-1	19	-1	-1	51	-1	-1	-1	-1	-1	-1	-1	53	47	-1	14	-1	-1	42	-1	-1	-1	63	-1	17	43	-1	-1	22	-1	-1	15	7	6	-1	-1	-1	-1	-1	-1
64	-1	-1	-1	-1	32	7	-1	10	-1	-1	13	-1	-1	-1	-1	-1	-1	-1	33	55	-1	58	-1	23	17	-1	-1	40	-1	-1	38	-1	-1	19	-1	6	-1	-1	-1	-1	29	25	-1	-1	-1	-1	50	-1	-1	28	1	47	21	26	-1	-1	-1	30	-1	2	46	-1	-1
-1	24	18	58	40	-1	53	-1	-1	-1	39	-1	17	25	-1	-1	-1	-1	27	9	32	-1	-1	26	-1	-1	-1	-1	6	-1	-1	35	-1	60	30	-1	-1	-1	-1	-1	52	-1	-1	-1	-1	-1	-1	12	16	-1	-1	51	14	36	-1	-1	62	23	7	43	-1	54	13	-1
44	-1	-1	28	-1	-1	-1	9	-1	33	29	-1	35	-1	-1	40	-1	53	-1	51	39	47	-1	62	-1	-1	-1	10	41	3	-1	-1	-1	22	38	-1	16	-1	-1	-1	-1	45	-1	43	-1	-1	-1	-1	-1	64	-1	-1	-1	-1	-1	-1	-1	-1	-1	-1	48	-1	5	-1
-1	-1	-1	-1	-1	-1	-1	-1	-1	-1	27	-1	-1	-1	43	-1	20	12	38	-1	-1	-1	36	42	-1	33	-1	19	-1	37	-1	-1	-1	-1	59	-1	23	-1	-1	-1	-1	-1	-1	-1	-1	-1	-1	17	30	-1	-1	60	3	-1	-1	-1	45	-1	-1	-1	40	-1	29	16
-1	37	12	-1	-1	-1	-1	-1	50	-1	-1	1	55	7	-1	24	-1	59	-1	46	-1	-1	-1	-1	-1	42	-1	31	-1	-1	-1	-1	20	58	43	15	-1	-1	-1	53	-1	33	-1	32	-1	38	-1	-1	-1	27	-1	-1	-1	61	-1	-1	63	-1	-1	-1	17	64	-1	6
26	-1	-1	-1	-1	-1	-1	29	-1	28	-1	-1	-1	60	49	-1	7	15	-1	-1	56	22	-1	-1	64	-1	24	-1	-1	-1	-1	-1	-1	45	33	17	50	-1	-1	36	3	-1	-1	-1	-1	5	-1	48	53	-1	-1	40	-1	-1	6	-1	47	-1	57	12	-1	-1	-1	51
-1	59	20	-1	-1	-1	-1	-1	-1	37	58	-1	31	14	16	-1	-1	6	52	-1	17	11	-1	-1	-1	63	-1	-1	-1	47	-1	-1	18	-1	3	-1	-1	27	62	61	42	-1	-1	-1	44	-1	-1	40	-1	-1	-1	-1	-1	-1	-1	7	-1	-1	-1	35	-1	53	-1	55
-1	-1	-1	-1	-1	47	-1	-1	23	-1	-1	42	59	-1	2	64	-1	13	-1	-1	40	-1	-1	31	8	-1	12	62	46	50	-1	5	-1	-1	34	-1	-1	-1	-1	-1	-1	-1	18	-1	16	26	-1	-1	29	41	-1	33	-1	39	15	35	-1	-1	-1	-1	9	-1	-1	-1
-1	-1	49	-1	9	-1	44	-1	-1	18	-1	-1	-1	35	-1	-1	-1	62	-1	-1	-1	-1	-1	1	17	28	13	58	36	39	12	22	-1	26	4	11	43	-1	33	55	-1	-1	-1	48	52	27	-1	-1	41	-1	14	-1	59	53	-1	25	-1	51	-1	20	-1	-1	45	-1
-1	-1	-1	-1	-1	-1	-1	6	49	27	-1	-1	2	10	-1	-1	-1	-1	-1	-1	-1	-1	-1	37	1	-1	-1	-1	-1	48	46	21	12	-1	-1	-1	-1	-1	20	-1	-1	50	47	9	-1	-1	-1	-1	-1	45	-1	-1	23	31	-1	-1	38	3	5	-1	-1	-1	39	41
-1	38	-1	-1	-1	-1	-1	-1	-1	-1	12	-1	29	-1	23	-1	-1	-1	-1	-1	35	-1	-1	-1	-1	-1	-1	3	-1	-1	-1	-1	-1	31	17	-1	18	-1	-1	21	-1	-1	-1	-1	15	-1	6	62	-1	1	46	-1	9	27	49	-1	43	36	-1	22	-1	-1	33	56
-1	-1	-1	-1	57	-1	45	27	33	-1	47	-1	30	42	44	-1	-1	16	26	-1	-1	-1	-1	40	32	38	35	50	11	-1	-1	-1	-1	28	-1	-1	62	-1	-1	54	-1	21	-1	-1	-1	-1	-1	13	10	-1	-1	-1	-1	-1	60	-1	29	-1	-1	19	-1	-1	18	-1
-1	64	-1	-1	-1	15	63	-1	-1	-1	-1	-1	-1	3	9	1	43	48	-1	-1	27	-1	-1	57	-1	-1	-1	-1	-1	33	-1	59	14	52	58	-1	45	-1	-1	-1	17	-1	-1	53	10	-1	41	-1	-1	-1	-1	18	-1	-1	-1	54	-1	35	-1	13	16	-1	12	-1
-1	-1	33	22	-1	-1	-1	-1	-1	-1	-1	43	24	15	51	-1	-1	49	13	-1	6	-1	12	-1	-1	44	-1	-1	16	5	-1	-1	-1	19	-1	-1	-1	-1	-1	-1	-1	-1	4	-1	-1	-1	46	-1	3	30	-1	38	-1	-1	-1	64	28	55	-1	9	-1	-1	-1	-1
31	-1	48	47	17	-1	-1	58	-1	-1	-1	14	-1	13	45	-1	-1	-1	-1	-1	-1	-1	-1	5	40	-1	43	-1	-1	-1	-1	-1	38	-1	-1	-1	-1	-1	15	-1	57	51	-1	59	-1	-1	-1	1	-1	35	-1	28	-1	-1	-1	42	-1	-1	-1	-1	-1	-1	-1	-1
25	-1	29	5	-1	14	-1	12	-1	-1	-1	58	-1	26	-1	-1	8	-1	-1	-1	33	38	60	-1	20	-1	45	-1	9	4	-1	-1	-1	23	-1	10	-1	64	-1	50	36	-1	35	-1	54	-1	-1	-1	-1	22	21	11	-1	17	-1	43	61	27	-1	48	-1	-1	7	-1
28	-1	-1	-1	-1	52	18	44	-1	-1	-1	-1	-1	-1	62	61	-1	37	53	13	-1	-1	-1	60	-1	-1	21	-1	-1	41	49	15	-1	-1	14	30	48	-1	22	-1	56	-1	-1	-1	-1	-1	-1	-1	12	-1	1	-1	45	26	63	-1	-1	-1	64	-1	27	-1	51	-1
-1	-1	-1	31	-1	-1	-1	-1	21	-1	-1	-1	32	-1	47	-1	-1	2	-1	-1	-1	63	-1	-1	-1	-1	30	-1	-1	-1	64	36	8	-1	44	7	-1	28	-1	40	-1	-1	-1	-1	4	33	-1	-1	-1	29	43	-1	53	62	-1	-1	-1	24	3	39	-1	45	46	34
-1	29	-1	-1	32	-1	64	-1	43	-1	-1	-1	-1	-1	-1	-1	-1	-1	-1	-1	-1	-1	-1	-1	31	-1	-1	-1	-1	52	55	-1	-1	-1	-1	45	-1	-1	11	38	7	53	-1	62	-1	-1	39	58	-1	-1	-1	-1	-1	15	3	-1	20	13	1	-1	-1	-1	23	-1
-1	-1	-1	-1	-1	22	-1	25	-1	63	-1	-1	18	-1	-1	-1	-1	36	-1	34	3	52	-1	-1	24	-1	-1	-1	-1	-1	-1	-1	-1	62	-1	-1	-1	17	39	46	-1	-1	19	31	-1	28	-1	-1	-1	-1	-1	-1	13	55	-1	-1	50	-1	29	-1	44	48	32	-1
-1	14	-1	-1	-1	21	48	2	8	55	51	24	-1	-1	31	-1	-1	-1	-1	-1	-1	-1	32	-1	-1	34	-1	-1	-1	-1	-1	45	-1	-1	29	-1	58	-1	26	-1	-1	-1	-1	25	-1	44	-1	-1	-1	39	23	-1	30	-1	-1	50	19	-1	6	-1	-1	18	-1	62
-1	-1	56	-1	-1	-1	-1	47	41	2	6	-1	-1	12	40	-1	-1	1	-1	-1	-1	64	-1	-1	-1	39	3	57	-1	-1	-1	60	32	-1	-1	-1	-1	-1	-1	-1	-1	15	-1	63	-1	51	-1	26	-1	-1	-1	-1	-1	-1	-1	-1	30	59	-1	-1	-1	-1	36	43
53	6	-1	3	-1	51	-1	-1	7	-1	-1	-1	-1	59	-1	-1	-1	-1	-1	-1	11	-1	24	-1	48	-1	-1	27	32	-1	-1	46	-1	47	-1	36	2	-1	55	-1	-1	34	-1	61	64	-1	54	-1	44	-1	42	8	-1	-1	56	-1	31	-1	-1	-1	12	-1	-1	-1
59	45	-1	-1	-1	55	-1	-1	56	-1	34	-1	-1	-1	-1	-1	19	-1	42	-1	-1	-1	29	39	-1	-1	-1	-1	-1	10	-1	26	-1	-1	-1	-1	61	-1	-1	-1	-1	14	-1	46	48	-1	-1	32	-1	-1	-1	-1	-1	-1	-1	-1	-1	-1	63	-1	28	-1	15	-1
-1	-1	-1	53	-1	-1	58	50	44	-1	48	7	-1	-1	4	-1	15	-1	40	-1	22	-1	39	-1	-1	-1	-1	-1	54	-1	-1	55	-1	-1	-1	-1	-1	63	-1	-1	21	-1	56	34	-1	2	-1	-1	-1	-1	-1	-1	-1	-1	-1	-1	-1	-1	-1	-1	-1	-1	-1	-1
-1	5	35	44	4	-1	-1	-1	20	-1	-1	38	61	-1	-1	-1	-1	-1	59	-1	-1	19	-1	-1	-1	26	58	52	-1	-1	22	-1	45	-1	-1	-1	1	-1	-1	-1	39	-1	-1	47	40	-1	-1	24	-1	-1	-1	-1	34	49	-1	55	48	25	56	46	-1	-1	-1	-1
18	-1	60	25	52	-1	-1	-1	2	34	57	50	-1	-1	-1	14	-1	-1	58	56	51	48	-1	-1	-1	35	-1	-1	-1	-1	9	32	29	-1	-1	-1	38	-1	64	44	-1	-1	7	-1	-1	-1	-1	4	-1	-1	15	36	6	3	1	8	-1	-1	13	-1	-1	-1	-1	39
56	-1	-1	-1	-1	38	-1	-1	-1	-1	-1	-1	-1	-1	-1	25	12	42	18	-1	34	-1	-1	-1	-1	50	-1	-1	-1	36	57	61	-1	-1	-1	-1	-1	-1	37	22	28	-1	51	8	19	-1	-1	-1	-1	-1	-1	-1	-1	-1	30	20	5	-1	31	4	-1	-1	2	-1
-1	2	-1	-1	-1	57	-1	-1	-1	60	8	-1	-1	-1	-1	43	41	-1	-1	-1	-1	-1	-1	-1	-1	-1	-1	-1	3	7	-1	-1	-1	-1	-1	21	-1	36	-1	-1	23	20	61	-1	-1	-1	33	-1	-1	-1	9	47	12	-1	59	-1	-1	-1	50	1	15	51	-1	29
-1	-1	-1	-1	-1	-1	32	40	-1	-1	55	17	52	-1	-1	51	-1	-1	-1	20	49	4	-1	-1	-1	21	59	-1	-1	-1	-1	-1	-1	7	42	19	-1	62	-1	34	-1	-1	50	-1	60	13	-1	54	-1	-1	25	26	-1	-1	-1	-1	14	-1	58	-1	-1	38	-1	-1
23	-1	3	-1	-1	20	34	-1	28	49	-1	-1	-1	-1	-1	-1	1	-1	-1	-1	50	-1	57	64	-1	51	-1	13	8	-1	25	39	-1	-1	-1	-1	-1	16	10	-1	-1	58	-1	38	18	52	48	53	-1	-1	-1	-1	7	29	40	-1	-1	-1	-1	21	-1	63	47	-1
-1	49	7	64	-1	54	33	-1	-1	23	-1	56	-1	-1	-1	63	-1	-1	-1	-1	-1	30	-1	44	-1	-1	-1	20	60	1	-1	4	50	-1	-1	-1	3	59	-1	57	-1	-1	-1	-1	-1	31	-1	36	-1	-1	58	42	-1	19	-1	39	-1	-1	27	-1	-1	-1	43	-1
64 
12 26 40 41
64 27 7 16
41 2 17 38
11 16 39 44
39 52 20 8
23 20 18 16
40 33 43 25
33 14 21 30
55 59 62 64
32 5 58 23
8 19 60 33
52 19 14 46
38 4 36 44
7 23 50 26
6 25 36 62
48 46 61 44
59 47 49 9
36 56 54 34
25 9 43 31
29 63 35 53
23 64 21 25
33 56 62 49
55 30 49 11
3 37 1 56
50 57 38 3
18 63 30 44
54 45 6 26
3 40 27 3
2 46 1 37
62 29 1 60
34 47 9 32
45 49 40 57
31 12 47 55
3 54 48 39
5 33 42 40
28 4 56 53
20 43 46 59
24 9 39 4
47 46 46 9
59 34 42 46
6 41 59 7
53 47 31 33
29 48 49 23
16 63 5 13
23 29 60 13
49 2 54 17
60 35 11 32
14 39 43 14
1 12 33 4
10 61 13 13
37 25 22 3
47 49 6 9
33 11 52 36
36 31 31 52
49 48 29 14
5 15 3 47
31 32 23 4
54 30 50 20
63 15 35 52
35 58 10 43
10 33 18 42
7 21 47 29
41 15 17 21
57 30 28 18
